10
1 0 2
2 1 6
3 2 3
4 0 13
4 2 20
4 3 19
5 0 1
5 1 9
5 2 15
5 4 17
6 0 11
6 1 17
6 3 14
6 4 14
6 5 20
7 0 18
7 1 13
7 2 2
7 3 9
7 4 1
7 6 7
8 1 17
8 2 13
8 4 16
8 6 18
9 0 10
9 2 1
9 3 14
9 5 17
9 6 13
9 8 20
